outputs/case_255.model.txt
shares_held_after_disposition = 100
disposition_deadline_days = 10
paid_in_capital_total = 0
major_shareholder_spouse_percent = 3/2
remove_manager_or_officer = True
other_necessary_measures = True
adjustment_extension_times = 0
revoke_statutory_meeting_resolution = False
specified_deadline_days = 10
major_shareholder_minor_children_percent = 0
adjustment_deadline_years = 0
max_allowed_directors = 10
board_meeting_approval_ratio = 3/4
authority_opposition = False
notify_ministry_economy = True
unsecured_credit_to_enterprise_over_3_percent = True
days_since_application = 20
major_shareholder_holding_percent = 7/2
revoke_permit = True
order_dispose_subsidiary_shares = True
remove_director_or_supervisor_or_suspend_duties = True
investment_business_type = 8
central_authority_threshold = 50000000
suspend_subsidiary_business_part_or_all = False
credit_amount = 100000000
max_allowed_shares = 100
adjustment_extension_years_per_time = 0
direct_indirect_directors_after_disposition = 10
secured_credit_to_enterprise_over_5_percent = False
board_meeting_attendance_ratio = 6666667/10000000
liquidation_ordered = False
subsidiary_investment_exceeds_limit = False
investment_and_management = False
subsidiary_business_type = 0
credit_conditions_better_than_similar = False
investment_without_approval_prohibited = True
subsidiary_capital_reduction_approved = True
permit_revoked = True
capital_reduction_application_complete = True
fhc_officer_is_manager_of_invested_startup = False
full_collateral_provided = True
subsidiary_business_within_scope = True
major_shareholder_own_percent = 2
director_supervisor_registration_revoked = True
capital_reduction_application_submitted = True
application_procedures_followed = True
adjustment_deadline_valid = True
no_unsecured_credit_over_3_percent = True
government_loan_exempted = True
secured_credit_over_5_percent_compliant = True
revoke_permit_compliance = True
subsidiary_business_exceeds_limit = False
application_review_conditions_met = True
consumer_loan_exempted = True
investment_approved = False
investment_business_approved = True
regulatory_action_taken = True
fhc_officer_not_manager_of_invested_startup = True
application_documents_submitted = True
penalty = False
investment_approved_by_default = True
other_requirements_complied = True
excess_business_or_investment_adjustment_required = False
/0 = [(0, 0) -> 1/20, else -> -50]